# Objective value = 311
x0,1_5 0
x0,1_7 1
x0,1_18 0
x0,1_20 0
x0,1_21 0
x0,1_24 0
x0,1_29 0
x0,1_39 0
x0,1_44 0
x0,1_45 0
x0,1_50 0
x0,1_64 0
x0,1_66 0
x0,1_71 0
x0,2_5 0
x0,2_7 0
x0,2_18 0
x0,2_20 0
x0,2_21 0
x0,2_24 0
x0,2_29 0
x0,2_39 0
x0,2_44 0
x0,2_45 0
x0,2_50 0
x0,2_64 0
x0,2_66 0
x0,2_71 0
x0,3_5 0
x0,3_7 0
x0,3_18 0
x0,3_20 0
x0,3_21 0
x0,3_24 0
x0,3_29 0
x0,3_39 0
x0,3_44 0
x0,3_45 1
x0,3_50 0
x0,3_64 0
x0,3_66 0
x0,3_71 0
x0,4_5 0
x0,4_7 0
x0,4_18 0
x0,4_20 0
x0,4_21 0
x0,4_24 0
x0,4_29 0
x0,4_39 0
x0,4_44 0
x0,4_45 0
x0,4_50 0
x0,4_64 0
x0,4_66 1
x0,4_71 0
x0,5_5 0
x0,5_7 0
x0,5_18 0
x0,5_20 0
x0,5_21 0
x0,5_24 0
x0,5_29 0
x0,5_39 0
x0,5_44 0
x0,5_45 0
x0,5_50 0
x0,5_64 0
x0,5_66 0
x0,5_71 1
x0,6_5 0
x0,6_7 0
x0,6_18 0
x0,6_20 0
x0,6_21 0
x0,6_24 0
x0,6_29 0
x0,6_39 0
x0,6_44 0
x0,6_45 0
x0,6_50 0
x0,6_64 0
x0,6_66 0
x0,6_71 0
x1,2_5 0
x1,2_7 0
x1,2_18 0
x1,2_20 1
x1,2_21 0
x1,2_24 0
x1,2_29 0
x1,2_39 0
x1,2_44 0
x1,2_45 0
x1,2_50 0
x1,2_64 0
x1,2_66 0
x1,2_71 0
x1,3_5 0
x1,3_7 0
x1,3_18 0
x1,3_20 0
x1,3_21 0
x1,3_24 0
x1,3_29 0
x1,3_39 0
x1,3_44 0
x1,3_45 0
x1,3_50 0
x1,3_64 0
x1,3_66 0
x1,3_71 0
x1,4_5 0
x1,4_7 0
x1,4_18 0
x1,4_20 0
x1,4_21 0
x1,4_24 0
x1,4_29 0
x1,4_39 0
x1,4_44 0
x1,4_45 0
x1,4_50 0
x1,4_64 0
x1,4_66 0
x1,4_71 0
x1,5_5 0
x1,5_7 0
x1,5_18 0
x1,5_20 0
x1,5_21 0
x1,5_24 0
x1,5_29 0
x1,5_39 0
x1,5_44 0
x1,5_45 0
x1,5_50 0
x1,5_64 1
x1,5_66 0
x1,5_71 0
x1,6_5 0
x1,6_7 0
x1,6_18 0
x1,6_20 0
x1,6_21 0
x1,6_24 0
x1,6_29 0
x1,6_39 0
x1,6_44 0
x1,6_45 0
x1,6_50 0
x1,6_64 0
x1,6_66 0
x1,6_71 0
x2,3_5 0
x2,3_7 0
x2,3_18 1
x2,3_20 0
x2,3_21 0
x2,3_24 0
x2,3_29 0
x2,3_39 0
x2,3_44 0
x2,3_45 0
x2,3_50 0
x2,3_64 0
x2,3_66 0
x2,3_71 0
x2,4_5 0
x2,4_7 0
x2,4_18 0
x2,4_20 0
x2,4_21 0
x2,4_24 0
x2,4_29 0
x2,4_39 1
x2,4_44 0
x2,4_45 0
x2,4_50 0
x2,4_64 0
x2,4_66 0
x2,4_71 0
x2,5_5 0
x2,5_7 0
x2,5_18 0
x2,5_20 0
x2,5_21 0
x2,5_24 0
x2,5_29 0
x2,5_39 0
x2,5_44 1
x2,5_45 0
x2,5_50 0
x2,5_64 0
x2,5_66 0
x2,5_71 0
x2,6_5 0
x2,6_7 0
x2,6_18 0
x2,6_20 0
x2,6_21 0
x2,6_24 0
x2,6_29 0
x2,6_39 0
x2,6_44 0
x2,6_45 0
x2,6_50 0
x2,6_64 0
x2,6_66 0
x2,6_71 0
x3,4_5 0
x3,4_7 0
x3,4_18 0
x3,4_20 0
x3,4_21 1
x3,4_24 0
x3,4_29 0
x3,4_39 0
x3,4_44 0
x3,4_45 0
x3,4_50 0
x3,4_64 0
x3,4_66 0
x3,4_71 0
x3,5_5 0
x3,5_7 0
x3,5_18 0
x3,5_20 0
x3,5_21 0
x3,5_24 0
x3,5_29 0
x3,5_39 0
x3,5_44 0
x3,5_45 0
x3,5_50 0
x3,5_64 0
x3,5_66 0
x3,5_71 0
x3,6_5 0
x3,6_7 0
x3,6_18 0
x3,6_20 0
x3,6_21 0
x3,6_24 0
x3,6_29 0
x3,6_39 0
x3,6_44 0
x3,6_45 0
x3,6_50 1
x3,6_64 0
x3,6_66 0
x3,6_71 0
x4,5_5 1
x4,5_7 0
x4,5_18 0
x4,5_20 0
x4,5_21 0
x4,5_24 0
x4,5_29 0
x4,5_39 0
x4,5_44 0
x4,5_45 0
x4,5_50 0
x4,5_64 0
x4,5_66 0
x4,5_71 0
x4,6_5 0
x4,6_7 0
x4,6_18 0
x4,6_20 0
x4,6_21 0
x4,6_24 0
x4,6_29 1
x4,6_39 0
x4,6_44 0
x4,6_45 0
x4,6_50 0
x4,6_64 0
x4,6_66 0
x4,6_71 0
x5,6_5 0
x5,6_7 0
x5,6_18 0
x5,6_20 0
x5,6_21 0
x5,6_24 1
x5,6_29 0
x5,6_39 0
x5,6_44 0
x5,6_45 0
x5,6_50 0
x5,6_64 0
x5,6_66 0
x5,6_71 0
p0 0
p1 7
p2 27
p3 45
p4 66
p5 71
p6 95
